[Molden Format]
[Title]
 H2O cc-pVDZ, converted from h2o.trexio (Cartesian, 6D)
[Atoms] (Angs)
O     1   8     4.999999640091     7.147076485541     7.650970449270
H     2   1     4.068065707174     6.942974500233     7.563760455547
H     3   1     5.380236612721     6.896962503545     6.807983509949
[GTO]
1 0
 s    5 1.00
  2.26617677850000e+03  -5.38935039953976e-03
  3.40870101910000e+02  -4.02347213579657e-02
  7.73631351670000e+01  -1.80081842102400e-01
  2.14796449400000e+01  -4.68288576578039e-01
  6.65894331240000e+00  -4.46926171573534e-01
 s    1 1.00
  8.09759756700000e-01   1.00000000000000e+00
 s    1 1.00
  2.55307722300000e-01   1.00000000000000e+00
 p    3 1.00
  1.77215043170000e+01   6.26302487728056e-02
  3.86355054400000e+00   3.33311384893242e-01
  1.04809208830000e+00   7.41486383018066e-01
 p    1 1.00
  2.76415444100000e-01   1.00000000000000e+00
 d    1 1.00
  1.20000000000000e+00   1.00000000000000e+00

2 0
 s    3 1.00
  1.30107010000000e+01   3.34854848129887e-02
  1.96225720000000e+00   2.34721870881249e-01
  4.44537960000000e-01   8.13770285259554e-01
 s    1 1.00
  1.21949620000000e-01   1.00000000000000e+00
 p    1 1.00
  8.00000000000000e-01   1.00000000000000e+00

3 0
 s    3 1.00
  1.30107010000000e+01   3.34854848129887e-02
  1.96225720000000e+00   2.34721870881249e-01
  4.44537960000000e-01   8.13770285259554e-01
 s    1 1.00
  1.21949620000000e-01   1.00000000000000e+00
 p    1 1.00
  8.00000000000000e-01   1.00000000000000e+00

[6D]
[MO]
Sym= A
Ene=   -20.546019802060
Spin= Alpha
Occup= 2.00000000
    1   9.90332584737172e-01
    2  -3.33275105376465e-02
    3   1.04015620180640e-02
    4   1.30796355027390e-03
    5   1.07685531635851e-03
    6   2.20531096331353e-03
    7  -7.60519800618487e-05
    8  -6.26142255863226e-05
    9  -1.28228840515915e-04
   10  -5.28621104900199e-04
   11   6.70324523560650e-04
   12  -1.41703418660451e-04
   13  -2.52575460899302e-04
   14   6.27545195062700e-04
   15  -6.05968851614868e-04
   16   1.79640998080021e-03
   17  -1.77299124556943e-03
   18   2.40142114167404e-03
   19   5.32231137083259e-04
   20   2.41321226351060e-04
   21   1.79640935938730e-03
   22  -1.77299107399380e-03
   23  -9.65125525397997e-04
   24   6.50280841456436e-04
   25   2.18036587377073e-03
Sym= A
Ene=    -1.318585710996
Spin= Alpha
Occup= 2.00000000
    1  -2.78506410211624e-01
    2  -5.50397040764014e-01
    3  -2.88979342256583e-01
    4   3.99506699820091e-02
    5   3.28916578514131e-02
    6   6.73594044591842e-02
    7  -2.33637265625218e-03
    8  -1.92355062638846e-03
    9  -3.93927265397111e-03
   10  -2.16707719162599e-03
   11   3.32342746989004e-03
   12  -1.15635027826405e-03
   13  -1.77390374514138e-03
   14   1.48946408012994e-03
   15  -3.79679913141380e-03
   16  -1.93964727199630e-01
   17  -6.26628018870718e-03
   18  -3.60323639983374e-02
   19  -5.61947625539323e-03
   20   2.61526665534010e-03
   21  -1.93964704889531e-01
   22  -6.26628069688507e-03
   23   1.99951048492646e-02
   24  -7.58410920584270e-03
   25  -2.96551221393029e-02
Sym= A
Ene=    -0.703253329809
Spin= Alpha
Occup= 2.00000000
    1  -7.36059204372159e-09
    2  -1.61870058597331e-08
    3  -3.03924178189021e-08
    4  -4.25441424069073e-01
    5   1.49183262320549e-02
    6   2.45043368313227e-01
    7  -1.96097421541180e-01
    8   6.87625959495946e-03
    9   1.12947096684434e-01
   10   1.84463239733229e-02
   11  -5.32540501857076e-04
   12  -1.79137834714658e-02
   13   1.45401565373795e-02
   14   2.04770873328665e-02
   15  -9.83791343416902e-03
   16   3.26904965691139e-01
   17   8.42929233036945e-02
   18   3.31195717012956e-02
   19   1.11351593340380e-02
   20   1.33285535790911e-02
   21  -3.26904948467262e-01
   22  -8.42929262740451e-02
   23   4.46880400849679e-03
   24  -1.24532162779426e-02
   25  -3.49784979713425e-02
Sym= A
Ene=    -0.568124719417
Spin= Alpha
Occup= 2.00000000
    1  -9.60444559614085e-02
    2  -1.99891118393056e-01
    3  -3.31755347063631e-01
    4  -2.57408684530414e-01
    5  -2.11926370318276e-01
    6  -4.34007771045090e-01
    7  -1.69819755707692e-01
    8  -1.39813792743923e-01
    9  -2.86327145014718e-01
   10  -6.28045634280537e-04
   11  -7.73706784835555e-03
   12   8.36511348263609e-03
   13   1.06511025438427e-02
   14   1.68081581175671e-02
   15   1.87457928701878e-02
   16   2.03300471384310e-01
   17   5.29687390140183e-02
   18   2.30443874966923e-02
   19  -3.69372347633806e-03
   20  -2.08774570660709e-02
   21   2.03300491789632e-01
   22   5.29687540354643e-02
   23  -2.97679471836644e-02
   24  -1.84182885532241e-03
   25   9.54110211835562e-03
Sym= A
Ene=    -0.498086261141
Spin= Alpha
Occup= 2.00000000
    1  -5.87546495815390e-14
    2  -1.25137412371195e-13
    3  -3.33051743894916e-13
    4   1.06955645716544e-01
    5  -5.82869087813306e-01
    6   2.21180413090174e-01
    7   8.40661386807880e-02
    8  -4.58129659641620e-01
    9   1.73845739098221e-01
   10  -2.53503505305758e-03
   11   1.13739951401629e-02
   12  -8.83896008710535e-03
   13   1.17279004983433e-02
   14  -9.51659423243914e-03
   15   1.89769336214467e-02
   16   3.59414274357060e-14
   17   2.25615655396514e-14
   18   4.90277232143705e-03
   19  -2.67183131063656e-02
   20   1.01387561177898e-02
   21   2.00273244777731e-13
   22   4.20349443331737e-13
   23   4.90277204332892e-03
   24  -2.67183115908414e-02
   25   1.01387555426988e-02
Sym= A
Ene=     0.176112689601
Spin= Alpha
Occup= 0.00000000
    1   8.70719178875919e-02
    2   8.88524676136067e-02
    3   1.10226296833377e+00
    4  -8.80683908232977e-02
    5  -7.25073336423615e-02
    6  -1.48489060822352e-01
    7  -1.73128801765661e-01
    8  -1.42538171918130e-01
    9  -2.91906460239200e-01
   10   4.73704248791790e-03
   11  -9.37647842428112e-03
   12   4.63943593636322e-03
   13   6.58765718043867e-03
   14   7.19119679906841e-04
   15   1.31166047655209e-02
   16  -6.68318122927678e-02
   17  -8.98134907083662e-01
   18  -1.90060895330769e-02
   19  -4.05232487246689e-03
   20  -1.48822546614887e-03
   21  -6.68318228148847e-02
   22  -8.98134989318065e-01
   23   8.01136774196859e-03
   24  -4.99970631721734e-03
   25  -1.70495895982682e-02
Sym= A
Ene=     0.255236008737
Spin= Alpha
Occup= 0.00000000
    1   4.02230181557491e-09
    2   2.82065998392432e-09
    3   8.79890681974933e-08
    4  -2.44916208720420e-01
    5   8.58811916039948e-03
    6   1.41065476798911e-01
    7  -5.70254642761263e-01
    8   1.99962851937281e-02
    9   3.28452094988438e-01
   10   1.33903621770717e-02
   11  -3.86577291993679e-04
   12  -1.30037848850780e-02
   13   1.05548372622393e-02
   14   1.48645093814453e-02
   15  -7.14143387653033e-03
   16  -2.56723200588290e-02
   17  -1.43068879071254e+00
   18  -1.87027109894355e-02
   19  -4.17607886563879e-03
   20  -1.96105406653355e-03
   21   2.56723250654370e-02
   22   1.43068867567535e+00
   23  -7.44442613184810e-03
   24   5.09294127682972e-03
   25   1.70211339586186e-02
Sym= A
Ene=     0.794253046889
Spin= Alpha
Occup= 0.00000000
    1  -2.89964606084814e-08
    2  -1.10506876009609e-07
    3   1.39171214511239e-07
    4  -2.34383007705811e-01
    5   8.21880321695673e-03
    6   1.34998718245337e-01
    7  -4.50910123063202e-01
    8   1.58114092524137e-02
    9   2.59712712612220e-01
   10  -7.63139390075386e-02
   11   2.20314265097278e-03
   12   7.41107963565658e-02
   13  -6.01538130321971e-02
   14  -8.47154112074340e-02
   15   4.07002737711761e-02
   16  -9.71353670483978e-01
   17   6.62747868760282e-01
   18   1.06837044586433e-01
   19   4.67643655001123e-02
   20   7.15735979955945e-02
   21   9.71354119593528e-01
   22  -6.62748215693725e-01
   23  -1.08522564689232e-02
   24  -5.01301327799062e-02
   25  -1.26858406109503e-01
Sym= A
Ene=     0.868472250900
Spin= Alpha
Occup= 0.00000000
    1   1.15596341588282e-01
    2   4.07230398287725e-01
    3  -3.96389382624760e-01
    4  -1.54834252632298e-01
    5  -1.27476070701723e-01
    6  -2.61060474441959e-01
    7  -2.54909564231008e-02
    8  -2.09867418650873e-02
    9  -4.29790380172106e-02
   10  -6.58092668929579e-02
   11   7.72933657484472e-02
   12  -1.14840988554893e-02
   13  -2.35424587014868e-02
   14   8.97136418925980e-02
   15  -6.13939741527772e-02
   16  -8.29884961955866e-01
   17   5.67534207442118e-01
   18   2.36898848032941e-01
   19   1.29431643899878e-02
   20  -8.04478958641654e-02
   21  -8.29884432017162e-01
   22   5.67533922543434e-01
   23  -1.87386195204776e-01
   24   2.78209192105258e-02
   25   1.63929367896083e-01
Sym= A
Ene=     1.184707035464
Spin= Alpha
Occup= 0.00000000
    1   1.29864340990267e-01
    2   5.61060717989837e-01
    3   1.85285651943921e-04
    4   3.73461776784311e-01
    5   3.07473637681345e-01
    6   6.29680681439038e-01
    7  -5.58694564941244e-01
    8  -4.59977019605129e-01
    9  -9.41995021031980e-01
   10  -4.41488253675558e-03
   11   2.65727694185590e-03
   12   1.75760559489969e-03
   13   1.66491401137577e-03
   14   1.07770776916734e-02
   15   1.64802531065517e-03
   16  -3.89174444093221e-01
   17  -3.01679494986670e-02
   18  -1.28190886967262e-01
   19  -5.29755082521538e-02
   20  -7.76155846756891e-02
   21  -3.89174382156293e-01
   22  -3.01678209299100e-02
   23  -5.71509644970673e-03
   24  -5.72701842710638e-02
   25  -1.48158500004720e-01
Sym= A
Ene=     1.201889543220
Spin= Alpha
Occup= 0.00000000
    1   9.57696126911755e-15
    2   3.33444320005942e-14
    3   1.15344186027609e-13
    4  -1.63592448049770e-01
    5   8.91518912621349e-01
    6  -3.38303275116254e-01
    7   1.74791076503182e-01
    8  -9.52547335270293e-01
    9   3.61461634367003e-01
   10   5.74525221541970e-04
   11  -2.57773204276318e-03
   12   2.00320682122121e-03
   13  -2.65794183925695e-03
   14   2.15678300211389e-03
   15  -4.30081369617957e-03
   16  -1.12068980621571e-13
   17  -1.18234136683798e-13
   18  -4.55689023567528e-05
   19   2.48333824095500e-04
   20  -9.42348444115789e-05
   21  -3.09371383193298e-14
   22   4.91708161353956e-14
   23  -4.55621679455994e-05
   24   2.48297124423543e-04
   25  -9.42209180681454e-05
Sym= A
Ene=     1.269261727301
Spin= Alpha
Occup= 0.00000000
    1  -2.59492626618743e-08
    2  -1.27973420006212e-07
    3   2.23240127534414e-07
    4   6.63701364159733e-01
    5  -2.32730751948168e-02
    6  -3.82275097938086e-01
    7  -1.49840218989997e+00
    8   5.25423081724186e-02
    9   8.63041434514789e-01
   10   3.22916512780912e-02
   11  -9.32254713337525e-04
   12  -3.13593965647537e-02
   13   2.54536168810721e-02
   14   3.58466481731292e-02
   15  -1.72219885241141e-02
   16  -3.44155928927593e-01
   17  -7.99320278240997e-01
   18  -3.06345079724666e-01
   19  -5.75224006801839e-02
   20  -3.44828634943570e-03
   21   3.44155915754888e-01
   22   7.99320182042031e-01
   23  -1.47289306169258e-01
   24   7.34293267732321e-02
   25   2.64730075984004e-01
Sym= A
Ene=     1.340229719964
Spin= Alpha
Occup= 0.00000000
    1  -2.46333219952218e-01
    2  -1.54167502715893e+00
    3   2.79182439970769e+00
    4   3.78859044196159e-02
    5   3.11917745173616e-02
    6   6.38782141332818e-02
    7  -2.87117387435944e-01
    8  -2.36385807044580e-01
    9  -4.84098716782624e-01
   10  -3.24094890593224e-02
   11   1.90793453091730e-02
   12   1.33301437501494e-02
   13   1.27707934753379e-02
   14   7.99189031729632e-02
   15   1.30735163345361e-02
   16  -5.31858501051297e-01
   17  -5.01998621032139e-01
   18  -1.45336242328996e-01
   19  -1.25278235258664e-01
   20  -2.59861523272880e-01
   21  -5.31858525648575e-01
   22  -5.01998653783308e-01
   23  -1.58435193167063e-01
   24  -1.24818924331781e-01
   25  -2.52316890984931e-01
Sym= A
Ene=     1.597327289318
Spin= Alpha
Occup= 0.00000000
    1   2.90916621295246e-15
    2   1.87856493124280e-14
    3  -4.17656024898382e-14
    4   6.82360231858110e-09
    5  -3.71860795477543e-08
    6   1.41109528403613e-08
    7  -5.67440184692980e-09
    8   3.09234177914275e-08
    9  -1.17344286343295e-08
   10   4.17025570213395e-02
   11   7.96912852851904e-03
   12  -4.96716855498586e-02
   13  -2.28725982470288e-01
   14   6.22197722806909e-02
   15   1.27874041219958e-01
   16   2.12532338023065e-14
   17  -9.70458431908120e-15
   18  -1.13296783534300e-01
   19   6.17425965954039e-01
   20  -2.34293657113795e-01
   21   1.41515039481878e-14
   22   1.37896330460954e-14
   23   1.13296789309254e-01
   24  -6.17425997425548e-01
   25   2.34293669056205e-01
Sym= A
Ene=     1.663872631151
Spin= Alpha
Occup= 0.00000000
    1  -8.47652579841617e-02
    2  -6.99669083273720e-01
    3   1.67282996003361e+00
    4   3.29388394370705e-02
    5   2.71187812739351e-02
    6   5.55370355403071e-02
    7  -5.46121921485256e-01
    8  -4.49625958747641e-01
    9  -9.20796949578398e-01
   10   1.45698361428257e-02
   11   7.00881951582551e-02
   12  -8.46580313010808e-02
   13  -1.06694164760100e-01
   14  -1.84000118061548e-01
   15  -1.85321263982835e-01
   16  -7.40413631320362e-01
   17  -1.75173165833429e-01
   18  -1.68515059957602e-01
   19   1.87872989422446e-01
   20   5.76583582779126e-01
   21  -7.40413588551218e-01
   22  -1.75173135260575e-01
   23   5.92489315880680e-01
   24   1.61187958900705e-01
   25   1.38264508974630e-01
Sym= A
Ene=     1.808533498027
Spin= Alpha
Occup= 0.00000000
    1   2.37549120189190e-15
    2   2.26221467908335e-14
    3  -5.76126765787143e-14
    4   5.25307310715458e-03
    5  -2.86273240619089e-02
    6   1.08631654929999e-02
    7   9.44710543945698e-02
    8  -5.14832638621162e-01
    9   1.95362729064574e-01
   10   2.73656578863234e-02
   11  -1.22782076802769e-01
   12   9.54164189164453e-02
   13  -1.26602474694063e-01
   14   1.02731465562085e-01
   15  -2.04855665560025e-01
   16   2.83207047613216e-14
   17  -7.80709991036582e-15
   18  -1.25103803258501e-01
   19   6.81769898154402e-01
   20  -2.58710147542728e-01
   21   2.98790456582955e-14
   22   2.01109405955576e-14
   23  -1.25103796930613e-01
   24   6.81769863669575e-01
   25  -2.58710134456829e-01
Sym= A
Ene=     2.059667291709
Spin= Alpha
Occup= 0.00000000
    1   3.91667070105343e-09
    2   2.11816057787411e-08
    3   1.11980918910635e-08
    4   1.40724706997859e-02
    5  -4.93454758546724e-04
    6  -8.10537285136327e-03
    7  -7.04629776715461e-01
    8   2.47082266388187e-02
    9   4.05848750475029e-01
   10  -1.68780342322510e-02
   11   4.87264318076323e-04
   12   1.63907699141747e-02
   13  -1.33039626439036e-02
   14  -1.87361367971019e-02
   15   9.00150485330733e-03
   16  -3.50505973898648e-01
   17  -8.00998193971319e-02
   18   9.46715818165576e-02
   19  -2.71653389057318e-01
   20  -7.61658868847143e-01
   21   3.50505956500432e-01
   22   8.00998122166718e-02
   23   7.19886569886714e-01
   24   2.43090456593024e-01
   25   2.92494162849514e-01
Sym= A
Ene=     2.562066969806
Spin= Alpha
Occup= 0.00000000
    1   1.94655231604308e-07
    2   9.32298807548536e-07
    3   8.30556267879505e-07
    4   6.88807097442104e-01
    5  -2.41537058649992e-02
    6  -3.96736108590914e-01
    7   8.93607775838563e-02
    8  -3.13358752398407e-03
    9  -5.14697970351882e-02
   10   1.19526010167559e-01
   11  -3.45040160784391e-03
   12  -1.16075608559715e-01
   13   9.42153624028950e-02
   14   1.32685055599556e-01
   15  -6.37468083074393e-02
   16   2.32554177133868e-01
   17   2.89749258561442e-01
   18   8.34174302428342e-01
   19   1.86953490036784e-01
   20   8.92925316888940e-02
   21  -2.32555215375733e-01
   22  -2.89749724807886e-01
   23   3.30421332720094e-01
   24  -2.27791169324011e-01
   25  -7.60071182283485e-01
Sym= A
Ene=     2.601736367247
Spin= Alpha
Occup= 0.00000000
    1  -1.57024796296867e-01
    2  -7.99417551764488e-01
    3  -6.22733409134639e-01
    4   2.92653527025522e-01
    5   2.40942912129120e-01
    6   4.93430801257223e-01
    7   8.58163716994062e-02
    8   7.06531305025154e-02
    9   1.44691746578565e-01
   10   1.60642519994285e-01
   11  -2.32440096181469e-01
   12   7.17975761871843e-02
   13   1.13632032584006e-01
   14  -1.36615261276810e-01
   15   2.49696216630522e-01
   16   4.18987987219799e-01
   17   1.77254981753329e-01
   18   8.50925094855750e-01
   19   1.71186474263896e-01
   20   3.96421229208165e-02
   21   4.18987340283557e-01
   22   1.77254265599757e-01
   23  -3.82538702418156e-01
   24   2.14438008229652e-01
   25   7.50084321934849e-01
Sym= A
Ene=     3.326662549027
Spin= Alpha
Occup= 0.00000000
    1  -4.32722496745312e-15
    2  -1.95730380775157e-14
    3  -1.02349610967600e-14
    4   1.51109956536171e-03
    5  -8.23493906614636e-03
    6   3.12489933418982e-03
    7  -5.00086127105966e-02
    8   2.72528619486470e-01
    9  -1.03416005235515e-01
   10   1.42148796492918e-01
   11  -6.37782518062112e-01
   12   4.95633721569194e-01
   13  -6.57626685352556e-01
   14   5.33630907020223e-01
   15  -1.06410806730691e+00
   16   1.17463711289401e-14
   17   4.92155830685963e-16
   18   6.90105032180792e-02
   19  -3.76081961739794e-01
   20   1.42711228631892e-01
   21   2.69060698458227e-14
   22  -4.28887861529003e-15
   23   6.90105502965749e-02
   24  -3.76082218300466e-01
   25   1.42711325988583e-01
Sym= A
Ene=     3.384705642703
Spin= Alpha
Occup= 0.00000000
    1  -4.75321112548466e-16
    2  -3.80228341641257e-15
    3  -4.72247738217942e-15
    4   1.01163959586641e-09
    5  -5.51306535935259e-09
    6   2.09204172761530e-09
    7   2.23970009630365e-08
    8  -1.22055452295486e-07
    9   4.63161771117864e-08
   10  -2.68277446286761e-01
   11  -5.12660414369174e-02
   12   3.19543487723678e-01
   13   1.47142104891660e+00
   14  -4.00267245492144e-01
   15  -8.22628050304849e-01
   16  -4.32934942976139e-15
   17   2.80460235475437e-15
   18  -6.46624494329596e-02
   19   3.52386661444886e-01
   20  -1.33719610415878e-01
   21   1.07291379223150e-14
   22  -2.71572673217810e-15
   23   6.46623885274108e-02
   24  -3.52386329531933e-01
   25   1.33719484465427e-01
Sym= A
Ene=     3.570758440691
Spin= Alpha
Occup= 0.00000000
    1   2.86477397177646e-03
    2  -7.51827652699206e-02
    3   5.47837540615541e-01
    4  -1.45814532373472e-02
    5  -1.20050164965364e-02
    6  -2.45852885074963e-02
    7  -2.57095406472740e-01
    8  -2.11668461231170e-01
    9  -4.33479603220939e-01
   10  -2.78986000186230e-01
   11  -1.80496903513885e-01
   12   4.59482903700115e-01
   13   5.52338688925147e-01
   14   1.33685041988830e+00
   15   8.98915255275081e-01
   16  -3.19575638507009e-01
   17  -5.98061309727912e-02
   18  -1.82052010418482e-01
   19   1.33102437804257e-01
   20   4.38794672100710e-01
   21  -3.19575662984064e-01
   22  -5.98061426444973e-02
   23   4.77305340211039e-01
   24   1.09981689586707e-01
   25   5.90216196674875e-02
Sym= A
Ene=     3.902122002503
Spin= Alpha
Occup= 0.00000000
    1   8.15817585941962e-02
    2   1.91079475600509e-01
    3   1.87983466784435e+00
    4  -1.89639652527107e-01
    5  -1.56131634794268e-01
    6  -3.19744732699130e-01
    7  -4.13825259565559e-01
    8  -3.40705254261249e-01
    9  -6.97736344541611e-01
   10   6.99543597441823e-01
   11  -8.76215284998892e-01
   12   1.76671687557069e-01
   13   3.20318376854604e-01
   14  -8.50876710816902e-01
   15   7.77151340758228e-01
   16  -1.15996017023277e+00
   17  -2.22135615864885e-01
   18  -7.64772078092539e-01
   19  -1.74936085204457e-01
   20  -9.11841364637298e-02
   21  -1.15996020318037e+00
   22  -2.22135642242990e-01
   23   2.94688946804765e-01
   24  -2.12086681025106e-01
   25  -7.01406669469471e-01
Sym= A
Ene=     4.233145220248
Spin= Alpha
Occup= 0.00000000
    1  -1.52819723055599e-08
    2  -9.69636004513848e-08
    3  -2.39682320115835e-07
    4   4.31266759075296e-01
    5  -1.51225737086215e-02
    6  -2.48398556944252e-01
    7   9.50181989153118e-01
    8  -3.33186017847730e-02
    9  -5.47280428390867e-01
   10  -9.43698594515930e-01
   11   2.72443797977133e-02
   12   9.16454214718217e-01
   13  -7.43862297087036e-01
   14  -1.04759064813842e+00
   15   5.03299405808288e-01
   16   1.06775589748593e+00
   17   2.52935488608467e-01
   18   7.72576693661025e-01
   19   1.75952638298044e-01
   20   9.00889656936972e-02
   21  -1.06775552813619e+00
   22  -2.52935442770752e-01
   23   2.99487217108032e-01
   24  -2.13545102660760e-01
   25  -7.07570284809496e-01
